Route #1: 2 48 38 32 34 19 15 49 46 16 9
Route #2: 13 26 22 17 50 12 23
Route #3: 4 45 14 39 21 11 28 24 31 3
Route #4: 1 30 18 20 42 40
Route #5: 37 47 6 36 25 41
Route #6: 51 5 8 27 29 10 44
Route #7: 35 33 7 43
Cost 753